(set-info :smt-lib-version 2.6)
(set-logic AUFBVFPDTNIRA)
(set-info :source |
Generated by: AdaCore
Generated on: 2020-03-06
Generator: SPARK
Application: Program verification for Ada
Target solver: CVC4
|)
(set-info :license "https://creativecommons.org/licenses/by/4.0/")
(set-info :category "industrial")
(set-info :status unknown)
;;; generated by SMT-LIB2 driver
;;; SMT-LIB2 driver: bit-vectors, common part
;;; SMT-LIB2: integer arithmetic
(declare-sort string 0)

(declare-datatypes ((tuple0 0))
(((Tuple0))))
(declare-sort us_private 0)

(declare-fun private__bool_eq (us_private us_private) Bool)

(declare-const us_null_ext__ us_private)

(declare-sort us_type_of_heap 0)

(declare-datatypes ((us_type_of_heap__ref 0))
(((us_type_of_heap__refqtmk (us_type_of_heap__content us_type_of_heap)))))
(declare-sort us_image 0)

(declare-datatypes ((int__ref 0))
(((int__refqtmk (int__content Int)))))
(declare-datatypes ((bool__ref 0))
(((bool__refqtmk (bool__content Bool)))))
(declare-datatypes ((us_fixed__ref 0))
(((us_fixed__refqtmk (us_fixed__content Int)))))
(declare-datatypes ((real__ref 0))
(((real__refqtmk (real__content Real)))))
(declare-datatypes ((us_private__ref 0))
(((us_private__refqtmk (us_private__content us_private)))))
(define-fun int__ref___projection ((a int__ref)) Int (int__content a))

(define-fun us_fixed__ref___projection ((a us_fixed__ref)) Int (us_fixed__content
                                                               a))

(define-fun bool__ref___projection ((a bool__ref)) Bool (bool__content a))

(define-fun real__ref___projection ((a real__ref)) Real (real__content a))

(define-fun us_private__ref___projection ((a us_private__ref)) us_private 
  (us_private__content a))

(declare-fun nth ((_ BitVec 64) Int) Bool)

(declare-fun lsr ((_ BitVec 64) Int) (_ BitVec 64))

(declare-fun asr ((_ BitVec 64) Int) (_ BitVec 64))

(declare-fun lsl ((_ BitVec 64) Int) (_ BitVec 64))

(define-fun abs1 ((x Int)) Int (ite (<= 0 x) x (- x)))

;; Abs_le
  (assert
  (forall ((x Int) (y Int)) (= (<= (abs1 x) y) (and (<= (- y) x) (<= x y)))))

;; Abs_pos
  (assert (forall ((x Int)) (<= 0 (abs1 x))))

;; Div_unique
  (assert
  (forall ((x Int) (y Int) (q Int))
  (=> (< 0 y) (=> (and (<= (* q y) x) (< x (+ (* q y) y))) (= (div x y) q)))))

;; Div_bound
  (assert
  (forall ((x Int) (y Int))
  (=> (and (<= 0 x) (< 0 y)) (and (<= 0 (div x y)) (<= (div x y) x)))))

;; Div_inf
  (assert
  (forall ((x Int) (y Int)) (=> (and (<= 0 x) (< x y)) (= (div x y) 0))))

;; Div_inf_neg
  (assert
  (forall ((x Int) (y Int))
  (=> (and (< 0 x) (<= x y)) (= (div (- x) y) (- 1)))))

;; Mod_0
  (assert (forall ((y Int)) (=> (not (= y 0)) (= (mod 0 y) 0))))

;; Div_1_left
  (assert (forall ((y Int)) (=> (< 1 y) (= (div 1 y) 0))))

;; Div_minus1_left
  (assert (forall ((y Int)) (=> (< 1 y) (= (div (- 1) y) (- 1)))))

;; Mod_1_left
  (assert (forall ((y Int)) (=> (< 1 y) (= (mod 1 y) 1))))

;; Mod_minus1_left
  (assert
  (forall ((y Int))
  (! (=> (< 1 y) (= (mod (- 1) y) (- y 1))) :pattern ((mod (- 1) y)) )))

;; Div_mult
  (assert
  (forall ((x Int) (y Int) (z Int))
  (! (=> (< 0 x) (= (div (+ (* x y) z) x) (+ y (div z x)))) :pattern ((div (+ (* x y) z) x)) )))

;; Mod_mult
  (assert
  (forall ((x Int) (y Int) (z Int))
  (! (=> (< 0 x) (= (mod (+ (* x y) z) x) (mod z x))) :pattern ((mod (+ (* x y) z) x)) )))

(declare-fun rotate_right1 ((_ BitVec 64) Int) (_ BitVec 64))

(declare-fun rotate_left1 ((_ BitVec 64) Int) (_ BitVec 64))

(declare-fun pow2 (Int) Int)

(define-fun to_int1 ((x (_ BitVec 64))) Int (ite (bvsge x (_ bv0 64))
                                            (bv2nat x)
                                            (- (- 18446744073709551616 (bv2nat x)))))

(define-fun uint_in_range ((i Int)) Bool (and (<= 0 i)
                                         (<= i 18446744073709551615)))

;; lsr_bv_is_lsr
  (assert
  (forall ((x (_ BitVec 64)) (n (_ BitVec 64)))
  (= (bvlshr x n) (lsr x (bv2nat n)))))

;; asr_bv_is_asr
  (assert
  (forall ((x (_ BitVec 64)) (n (_ BitVec 64)))
  (= (bvashr x n) (asr x (bv2nat n)))))

;; lsl_bv_is_lsl
  (assert
  (forall ((x (_ BitVec 64)) (n (_ BitVec 64)))
  (= (bvshl x n) (lsl x (bv2nat n)))))

;; rotate_left_bv_is_rotate_left
  (assert
  (forall ((v (_ BitVec 64)) (n (_ BitVec 64)))
  (= (bvor (bvshl v (bvurem n (_ bv64 64))) (bvlshr v (bvsub (_ bv64 64) (bvurem n (_ bv64 64))))) 
  (rotate_left1 v (bv2nat n)))))

;; rotate_right_bv_is_rotate_right
  (assert
  (forall ((v (_ BitVec 64)) (n (_ BitVec 64)))
  (= (bvor (bvlshr v (bvurem n (_ bv64 64))) (bvshl v (bvsub (_ bv64 64) (bvurem n (_ bv64 64))))) 
  (rotate_right1 v (bv2nat n)))))

(declare-fun nth_bv ((_ BitVec 64) (_ BitVec 64)) Bool)

;; nth_bv_def
  (assert
  (forall ((x (_ BitVec 64)) (i (_ BitVec 64)))
  (= (= (nth_bv x i) true)
  (not (= (bvand (bvlshr x i) #x0000000000000001) #x0000000000000000)))))

;; Nth_bv_is_nth
  (assert
  (forall ((x (_ BitVec 64)) (i (_ BitVec 64)))
  (= (nth x (bv2nat i)) (nth_bv x i))))

;; Nth_bv_is_nth2
  (assert
  (forall ((x (_ BitVec 64)) (i Int))
  (=> (and (<= 0 i) (< i 18446744073709551616))
  (= (nth_bv x ((_ int2bv 64) i)) (nth x i)))))

(declare-fun eq_sub_bv ((_ BitVec 64) (_ BitVec 64) (_ BitVec 64)
  (_ BitVec 64)) Bool)

;; eq_sub_bv_def
  (assert
  (forall ((a (_ BitVec 64)) (b (_ BitVec 64)) (i (_ BitVec 64))
  (n (_ BitVec 64)))
  (let ((mask (bvshl (bvsub (bvshl #x0000000000000001 n) #x0000000000000001) i)))
  (= (eq_sub_bv a b i n) (= (bvand b mask) (bvand a mask))))))

(define-fun eq_sub ((a (_ BitVec 64)) (b (_ BitVec 64)) (i Int)
  (n Int)) Bool (forall ((j Int))
                (=> (and (<= i j) (< j (+ i n))) (= (nth a j) (nth b j)))))

;; eq_sub_equiv
  (assert
  (forall ((a (_ BitVec 64)) (b (_ BitVec 64)) (i (_ BitVec 64))
  (n (_ BitVec 64)))
  (= (eq_sub a b (bv2nat i) (bv2nat n)) (eq_sub_bv a b i n))))

(declare-datatypes ((t__ref 0))
(((t__refqtmk (t__content (_ BitVec 64))))))
(declare-fun power ((_ BitVec 64) Int) (_ BitVec 64))

(define-fun bv_min ((x (_ BitVec 64))
  (y (_ BitVec 64))) (_ BitVec 64) (ite (bvule x y) x y))

(define-fun bv_max ((x (_ BitVec 64))
  (y (_ BitVec 64))) (_ BitVec 64) (ite (bvule x y) y x))

(define-fun min ((x Int) (y Int)) Int (ite (<= x y) x y))

(define-fun max ((x Int) (y Int)) Int (ite (<= x y) y x))

;; Min_r
  (assert (forall ((x Int) (y Int)) (=> (<= y x) (= (min x y) y))))

;; Max_l
  (assert (forall ((x Int) (y Int)) (=> (<= y x) (= (max x y) x))))

;; Min_comm
  (assert (forall ((x Int) (y Int)) (= (min x y) (min y x))))

;; Max_comm
  (assert (forall ((x Int) (y Int)) (= (max x y) (max y x))))

;; Min_assoc
  (assert
  (forall ((x Int) (y Int) (z Int)) (= (min (min x y) z) (min x (min y z)))))

;; Max_assoc
  (assert
  (forall ((x Int) (y Int) (z Int)) (= (max (max x y) z) (max x (max y z)))))

(declare-const word (_ BitVec 64))

(declare-const attr__ATTRIBUTE_ADDRESS Int)

(declare-fun invariant__ (tuple0) Bool)

(declare-fun invariant____function_guard (Bool tuple0) Bool)

;; invariant____post_axiom
  (assert true)

(declare-fun kind ((_ BitVec 64)) Int)

(declare-fun kind__function_guard (Int (_ BitVec 64)) Bool)

(declare-fun is_undefined ((_ BitVec 64)) Bool)

(declare-fun is_undefined__function_guard (Bool (_ BitVec 64)) Bool)

(declare-sort word64 0)

(declare-const attr__ATTRIBUTE_MODULUS (_ BitVec 64))

(declare-fun attr__ATTRIBUTE_IMAGE ((_ BitVec 64)) us_image)

(declare-fun attr__ATTRIBUTE_VALUE__pre_check (us_image) Bool)

(declare-fun attr__ATTRIBUTE_VALUE (us_image) (_ BitVec 64))

(declare-fun user_eq (word64 word64) Bool)

(declare-const dummy word64)

(declare-datatypes ((word64__ref 0))
(((word64__refqtmk (word64__content word64)))))
(define-fun word64__ref_word64__content__projection ((a word64__ref)) word64 
  (word64__content a))

(define-fun dynamic_invariant ((temp___expr_161 (_ BitVec 64))
  (temp___is_init_157 Bool) (temp___skip_constant_158 Bool)
  (temp___do_toplevel_159 Bool) (temp___do_typ_inv_160 Bool)) Bool true)

;; is_undefined__post_axiom
  (assert true)

;; is_undefined__def_axiom
  (assert
  (forall ((word1 (_ BitVec 64)))
  (! (and
     (forall ((word2 (_ BitVec 64))) (kind__function_guard (kind word2)
     word2)) (= (= (is_undefined word1) true) (= (kind word1) 0))) :pattern (
  (is_undefined word1)) )))

(declare-sort kind_type 0)

(define-fun in_range ((x Int)) Bool (and (<= 0 x) (<= x 1)))

(declare-fun attr__ATTRIBUTE_IMAGE1 (Int) us_image)

(declare-fun attr__ATTRIBUTE_VALUE__pre_check1 (us_image) Bool)

(declare-fun attr__ATTRIBUTE_VALUE1 (us_image) Int)

(declare-fun user_eq1 (kind_type kind_type) Bool)

(declare-const dummy1 kind_type)

(declare-datatypes ((kind_type__ref 0))
(((kind_type__refqtmk (kind_type__content kind_type)))))
(define-fun kind_type__ref_kind_type__content__projection ((a kind_type__ref)) kind_type 
  (kind_type__content a))

(define-fun dynamic_invariant1 ((temp___expr_170 Int)
  (temp___is_init_166 Bool) (temp___skip_constant_167 Bool)
  (temp___do_toplevel_168 Bool)
  (temp___do_typ_inv_169 Bool)) Bool (=>
                                     (or (= temp___is_init_166 true)
                                     (<= 0 1)) (in_range temp___expr_170)))

;; kind__post_axiom
  (assert
  (forall ((word1 (_ BitVec 64)))
  (! (=> (dynamic_invariant word1 true true true true)
     (let ((result (kind word1)))
     (=> (kind__function_guard result word1) (dynamic_invariant1 result true
     false true true)))) :pattern ((kind word1)) )))

(assert
;; defqtvc
 ;; File "repro-b.ads", line 6, characters 0-0
  (not
  (=> (dynamic_invariant word true false true true)
  (=> (invariant____function_guard (invariant__ Tuple0) Tuple0)
  (=> (= (invariant__ Tuple0) true)
  (=> (forall ((o (_ BitVec 64))) (kind__function_guard (kind o) o))
  (=>
  (let ((o word))
  (let ((o1 (is_undefined o)))
  (and
  (and (is_undefined__function_guard o1 o) (= (= o1 true) (= (kind o) 0)))
  (exists ((spark__branch Bool))
  (= spark__branch (ite (= o1 true) false true))))))
  (=> (invariant____function_guard (invariant__ Tuple0) Tuple0)
  (= (invariant__ Tuple0) true)))))))))
(check-sat)
(exit)
